Route #1: 5 8 43 32 27 38 37 9 
Route #2: 11 12 16 52 3 18 
Route #3: 15 21 47 4 35 34 
Route #4: 7 2 46 44 
Route #5: 33 39 17 41 54 13 22 
Route #6: 19 45 25 53 24 29 
Route #7: 30 49 51 55 14 28 20 23 31 
Route #8: 36 10 50 40 48 6 
Route #9: 26 42 
cost 1107.43
